<number of tasks>
250

<cycle time>
1000

<order strength>
0.596


<task times>
1 376
2 536
3 329
4 627
5 358
6 420
7 301
8 306
9 401
10 530
11 659
12 591
13 436
14 387
15 595
16 498
17 630
18 481
19 389
20 557
21 272
22 449
23 408
24 500
25 629
26 648
27 532
28 690
29 653
30 430
31 549
32 554
33 654
34 477
35 408
36 283
37 408
38 557
39 322
40 275
41 423
42 425
43 411
44 575
45 439
46 409
47 491
48 360
49 409
50 527
51 427
52 365
53 594
54 696
55 620
56 474
57 564
58 430
59 430
60 649
61 344
62 344
63 479
64 517
65 380
66 297
67 449
68 372
69 379
70 659
71 465
72 289
73 522
74 542
75 434
76 385
77 527
78 404
79 461
80 508
81 570
82 245
83 453
84 552
85 396
86 493
87 270
88 581
89 436
90 292
91 381
92 452
93 299
94 593
95 469
96 518
97 766
98 592
99 660
100 712
101 204
102 381
103 480
104 602
105 583
106 555
107 630
108 424
109 374
110 528
111 670
112 531
113 429
114 436
115 403
116 463
117 605
118 468
119 419
120 647
121 631
122 437
123 545
124 502
125 361
126 557
127 376
128 540
129 521
130 417
131 525
132 508
133 550
134 533
135 472
136 677
137 437
138 450
139 461
140 593
141 433
142 501
143 452
144 409
145 609
146 647
147 445
148 566
149 598
150 409
151 381
152 524
153 451
154 438
155 451
156 328
157 489
158 386
159 287
160 316
161 451
162 669
163 655
164 608
165 441
166 280
167 340
168 413
169 611
170 265
171 534
172 510
173 653
174 344
175 397
176 383
177 543
178 489
179 209
180 531
181 501
182 525
183 570
184 494
185 512
186 627
187 662
188 314
189 495
190 516
191 455
192 284
193 820
194 427
195 602
196 759
197 474
198 577
199 398
200 273
201 332
202 490
203 360
204 559
205 404
206 438
207 644
208 190
209 494
210 489
211 543
212 522
213 483
214 243
215 551
216 569
217 432
218 498
219 481
220 649
221 513
222 598
223 446
224 439
225 599
226 374
227 382
228 495
229 540
230 539
231 536
232 500
233 482
234 470
235 521
236 286
237 563
238 565
239 668
240 374
241 494
242 655
243 408
244 336
245 629
246 373
247 550
248 557
249 409
250 279

<precedence relations>
1,193
2,78
3,78
4,23
5,23
6,23
7,8
7,9
7,10
7,11
7,12
7,13
7,14
8,229
9,140
10,78
11,23
12,23
13,102
14,15
14,16
14,17
14,18
14,19
14,20
15,77
16,23
17,23
18,165
19,22
19,24
19,25
19,27
19,50
19,55
19,62
19,67
20,21
20,26
20,28
20,48
20,65
21,77
22,77
23,29
23,30
23,31
23,32
23,33
23,34
23,35
23,36
23,37
23,38
23,39
23,40
23,41
23,42
23,43
23,44
23,45
23,46
24,152
25,165
26,165
27,214
28,30
28,53
28,64
29,193
30,77
31,140
32,47
32,72
33,48
33,69
34,47
34,48
34,55
34,78
34,81
34,96
35,47
35,48
35,57
35,60
35,68
36,47
36,48
37,47
37,48
37,49
37,50
37,51
38,47
38,48
38,54
39,53
39,83
39,165
40,47
40,48
40,71
40,74
40,81
40,96
41,49
41,51
42,59
43,53
43,72
43,80
44,47
44,48
44,49
44,72
45,47
45,48
45,57
45,60
45,80
45,81
45,82
46,72
47,77
48,140
49,206
50,52
50,69
50,73
50,74
51,52
51,53
51,54
52,152
53,214
54,55
54,56
54,57
54,58
55,217
56,77
57,206
58,59
58,60
58,61
58,62
59,117
60,102
61,63
61,64
61,65
61,66
61,67
61,79
62,63
62,64
62,65
62,68
63,117
64,229
65,140
66,152
67,206
68,69
68,70
68,71
68,72
68,73
68,74
68,75
69,77
70,140
71,78
72,78
73,152
74,76
74,79
74,103
75,76
75,80
75,81
76,217
77,83
77,84
77,85
77,86
77,87
77,88
77,89
78,82
78,90
78,91
78,92
78,93
78,94
78,95
79,102
80,96
80,102
81,214
81,228
82,117
83,229
84,140
85,214
86,97
86,98
86,99
87,116
87,142
87,166
88,97
89,97
89,122
90,97
90,116
91,118
91,149
91,155
91,185
92,98
93,99
93,120
94,142
94,167
95,101
95,165
96,99
97,117
98,102
99,100
99,101
99,103
99,119
100,217
101,206
102,105
102,106
102,107
102,108
102,109
102,110
102,111
102,112
102,113
102,114
102,115
102,116
103,104
104,117
105,229
106,118
106,120
106,166
107,121
107,122
107,169
108,118
108,192
109,165
109,168
110,193
110,195
111,117
111,119
111,120
112,142
113,167
114,119
115,122
115,208
116,169
116,185
117,123
117,124
117,125
117,126
117,127
117,128
117,129
117,130
117,131
117,132
117,133
117,134
117,135
117,136
117,137
117,138
117,139
118,217
119,140
120,165
121,141
122,166
122,168
123,214
124,191
125,142
125,196
126,151
128,148
128,149
128,151
129,250
130,153
130,168
130,185
131,168
131,193
131,195
132,207
133,215
133,229
134,193
136,153
136,155
137,186
137,206
137,217
138,142
138,151
139,142
139,166
140,143
140,144
140,145
140,146
140,147
140,150
141,245
142,193
143,165
144,168
145,247
146,154
146,155
146,168
147,152
147,155
148,152
149,165
150,165
151,152
151,153
151,154
152,156
152,157
152,158
152,159
152,160
152,161
152,162
152,163
152,164
152,165
152,166
153,165
154,165
154,185
155,165
156,167
156,192
157,185
157,187
157,195
159,168
159,187
159,192
160,167
160,196
162,169
162,185
162,195
163,186
163,228
164,169
164,188
164,189
165,167
165,169
165,170
165,171
165,172
165,173
165,174
165,175
165,176
165,177
165,178
165,179
165,180
165,181
165,182
165,183
165,184
166,192
167,193
168,217
169,206
170,186
170,189
170,190
170,191
170,192
171,187
171,196
172,192
172,207
173,186
175,193
175,194
175,195
176,186
178,188
178,193
179,186
180,186
180,206
180,214
181,189
181,191
181,196
182,186
182,187
183,186
183,207
184,215
185,190
186,229
187,189
187,190
188,191
188,192
189,193
190,229
191,214
192,194
192,195
192,196
193,197
193,198
193,199
193,200
193,201
193,202
193,203
193,204
193,205
193,206
193,207
194,217
195,206
196,245
197,214
198,208
199,228
200,246
202,216
203,208
203,215
205,245
206,209
206,210
206,211
206,212
206,213
208,217
209,228
210,227
212,249
213,216
213,228
214,218
214,219
214,220
214,221
214,222
214,223
214,224
214,225
214,226
214,227
215,228
216,229
217,230
217,231
217,232
217,233
217,234
217,235
217,248
219,246
220,229
223,236
223,246
227,229
228,236
228,248
229,237
229,238
229,239
229,240
229,241
229,242
229,243
229,244
230,246
236,249
236,250
238,247
239,246
239,248
241,245
242,246
243,250
245,250
246,249
246,250

<end>
